1
986    486    422 0
20
231    111    98 5  5
348    248    19 2 2
128    128    130 3 3
128    128    130 2 2
205    62    54 1 1 
256    98    101 5 5
172    45    27 3 3
351    334    212 4  4
610    364    318 1 1
215    230    118 3 3
348    248    19 29	83
89    89    86 8	89
210    53    43 44	19
106    57    57 99	55
128    128    130 31	78
256    103    98 114	110
101    93    52 13	93
205    62    54 135	43
256    98    101 106	123
383    330    200 7	106
